Vertices: 25
Edges: 108
Edge Density: 0.36
Degree Variance: 6.750399999999998
Clustering Coefficient: 0.049565217391304345
p edge 25
e 0 1
e 0 2
e 0 3
e 0 4
e 0 11
e 0 12
e 0 14
e 0 15
e 0 17
e 0 22
e 1 2
e 1 5
e 1 9
e 1 10
e 1 11
e 1 14
e 1 16
e 1 17
e 1 22
e 1 23
e 2 6
e 2 7
e 2 10
e 2 11
e 2 16
e 2 17
e 3 6
e 3 15
e 3 20
e 3 22
e 3 23
e 4 5
e 4 7
e 4 12
e 4 13
e 4 14
e 4 16
e 4 17
e 4 19
e 4 20
e 4 22
e 5 9
e 5 10
e 5 11
e 5 15
e 5 16
e 5 18
e 6 8
e 6 10
e 6 11
e 6 17
e 6 23
e 7 10
e 7 14
e 7 19
e 7 20
e 7 23
e 8 9
e 8 13
e 8 16
e 8 19
e 8 23
e 9 18
e 9 19
e 9 23
e 10 13
e 10 15
e 10 16
e 10 18
e 10 22
e 11 14
e 11 16
e 11 18
e 11 21
e 11 22
e 11 24
e 12 13
e 12 14
e 12 15
e 12 16
e 13 15
e 13 17
e 13 18
e 13 22
e 13 24
e 14 15
e 14 18
e 14 19
e 14 22
e 15 20
e 15 22
e 16 18
e 16 19
e 16 20
e 16 23
e 17 18
e 17 20
e 17 22
e 17 23
e 17 24
e 18 20
e 18 22
e 18 24
e 19 20
e 19 21
e 20 22
e 21 24
e 22 23
